p cnf 72 269
-4 -2 0
-4 -3 0
2 3 4 0
-6 -4 0
-6 5 0
4 -5 6 0
-7 6 0
-7 -3 0
-6 3 7 0
-1 -7 -8 0
1 7 -8 0
-1 7 8 0
1 -7 8 0
3 9 -10 0
-3 -9 -10 0
3 -9 10 0
-3 9 10 0
-11 10 0
-11 -9 0
-10 9 11 0
11 4 -12 0
-11 -4 -12 0
11 -4 12 0
-11 4 12 0
14 2 0
14 -13 0
-2 13 -14 0
15 -4 0
15 -14 0
4 14 -15 0
-12 -15 -16 0
12 15 -16 0
-12 15 16 0
12 -15 16 0
17 18 -19 0
-17 -18 -19 0
17 -18 19 0
-17 18 19 0
-20 -19 0
-20 12 0
19 -12 20 0
-21 16 0
-21 -20 0
-16 20 21 0
-14 9 -22 0
14 -9 -22 0
-14 -9 22 0
14 9 22 0
-23 2 0
-23 2 0
-2 23 0
24 -22 0
24 -23 0
22 23 -24 0
18 2 -25 0
-18 -2 -25 0
18 -2 25 0
-18 2 25 0
26 23 0
26 25 0
-23 -25 -26 0
24 26 -27 0
-24 -26 -27 0
24 -26 27 0
-24 26 27 0
28 21 0
28 -27 0
-21 27 -28 0
-29 -9 0
-29 5 0
9 -5 29 0
30 -25 0
30 29 0
25 -29 -30 0
-28 30 -31 0
28 -30 -31 0
-28 -30 31 0
28 30 31 0
32 8 0
32 -31 0
-8 31 -32 0
-33 9 0
-33 19 0
-9 -19 33 0
-11 33 -34 0
11 -33 -34 0
-11 -33 34 0
11 33 34 0
-35 12 -36 0
35 -12 -36 0
-35 -12 36 0
35 12 36 0
-37 5 0
-37 -35 0
-5 35 37 0
-38 6 0
-38 -37 0
-6 37 38 0
39 2 0
39 -38 0
-2 38 -39 0
40 -33 0
40 -39 0
33 39 -40 0
-41 36 0
-41 -40 0
-36 40 41 0
34 41 -42 0
-34 -41 -42 0
34 -41 42 0
-34 41 42 0
-43 32 0
-43 42 0
-32 -42 43 0
44 35 0
44 -5 0
-35 5 -44 0
45 -44 0
45 -6 0
44 6 -45 0
-45 -11 -46 0
45 11 -46 0
-45 11 46 0
45 -11 46 0
9 47 0
-9 47 0
48 11 0
48 -19 0
-11 19 -48 0
49 -13 0
49 48 0
13 -48 -49 0
50 47 0
50 49 0
-47 -49 -50 0
51 46 0
51 -50 0
-46 50 -51 0
52 -29 0
52 29 0
-52 18 -53 0
52 -18 -53 0
-52 -18 53 0
52 18 53 0
9 -54 -55 0
-9 54 -55 0
9 54 55 0
-9 -54 55 0
-56 55 0
-56 -9 0
-55 9 56 0
57 56 0
57 -37 0
-56 37 -57 0
53 57 -58 0
-53 -57 -58 0
53 -57 58 0
-53 57 58 0
59 51 0
59 58 0
-51 -58 -59 0
-23 17 -60 0
23 -17 -60 0
-23 -17 60 0
23 17 60 0
61 -60 0
61 13 0
60 -13 -61 0
-12 3 -62 0
12 -3 -62 0
-12 -3 62 0
12 3 62 0
-61 -62 -63 0
61 62 -63 0
-61 62 63 0
61 -62 63 0
-64 37 0
-64 12 0
-37 -12 64 0
65 54 0
65 4 0
-54 -4 -65 0
-64 -65 -66 0
64 65 -66 0
-64 65 66 0
64 -65 66 0
67 -63 0
67 -66 0
63 66 -67 0
-68 4 0
-68 -29 0
-4 29 68 0
-35 68 -69 0
35 -68 -69 0
-35 -68 69 0
35 68 69 0
-70 -67 0
-70 -69 0
67 69 70 0
-71 -59 0
-71 -70 0
59 70 71 0
-43 -71 -72 0
43 71 -72 0
-43 71 72 0
43 -71 72 0
28 61 -31 -39 -68 0
17 -35 -32 0
8 71 -47 -51 0
31 -26 66 -19 0
-44 -9 -52 -69 5 21 0
-45 24 0
-56 59 -10 0
47 -1 49 0
-41 -28 59 -15 0
3 35 -40 61 0
68 -26 66 -29 0
47 -24 6 -37 0
19 71 -25 -64 -38 0
-15 -21 0
-9 48 -28 0
-52 18 -41 -8 0
53 49 48 0
30 58 -68 -24 0
-8 -3 0
54 52 0
-30 25 0
25 -16 -70 -29 -17 0
-19 31 -28 0
35 -9 38 -14 -1 0
-28 17 -6 15 -7 -61 0
-43 -12 14 0
44 20 -52 -36 -55 69 0
-29 40 -26 0
-13 38 55 -53 19 0
12 -17 33 52 0
-42 26 16 0
21 -49 0
-45 -28 57 0
27 -66 0
9 11 -16 -67 30 0
-3 -65 44 0
-55 -3 45 0
62 -35 -47 13 69 0
-18 48 -23 -9 71 0
43 -31 -66 12 0
-7 63 62 -28 -45 -59 0
-45 22 -23 -1 0
11 -33 -50 0
63 -10 -32 52 -42 16 0
67 -14 68 -37 0
34 -2 -31 65 45 0
-29 -24 0
38 -67 34 50 70 57 0
-30 27 -23 -43 -8 -15 0
25 -66 20 57 0
-25 68 -57 -49 0
-1 -4 46 -3 0
61 5 12 18 38 0
58 -12 0
17 -57 0
-11 -61 15 32 0
35 -47 9 -26 0
-22 13 11 18 0
54 -59 2 0
31 58 18 0
-24 59 32 -58 0
34 -64 5 -12 -22 0
72 0
